(set-info :source |printed by MathSAT|)
(declare-fun |.x{85}| () Int)
(declare-fun |.y{7}| () Int)
(declare-fun |.y{6}| () Int)
(declare-fun |.y{8}| () Int)
(declare-fun |.x{86}| () (Array Int Int))
(declare-fun |.y{9}| () (Array Int Int))
(declare-fun |.x{89}| () Int)
(declare-fun |.y{10}| () Int)
(declare-fun |.x{81}| () Int)
(declare-fun |.y{11}| () Int)
(declare-fun |.loc{3}| () Bool)
(declare-fun |.loc{5}| () Bool)
(declare-fun |.loc{4}| () Bool)
(declare-fun |.loc{6}| () Bool)
(declare-fun |.x{87}| () Int)
(define-fun .def_18 () Bool (! |.loc{3}| :next |.loc{5}|))
(define-fun .def_72 () Bool (not .def_18))
(define-fun .def_20 () Bool (! |.loc{4}| :next |.loc{6}|))
(define-fun .def_49 () Bool (not .def_20))
(define-fun .def_117 () Bool (! (and .def_49 .def_72) :init true))
(define-fun .def_12 () (Array Int Int) (! |.x{86}| :next |.y{9}|))
(define-fun .def_93 () Int (select .def_12 |.x{87}|))
(define-fun .def_14 () Int (! |.x{89}| :next |.y{10}|))
(define-fun .def_94 () Bool (= .def_14 .def_93))
(define-fun .def_110 () Bool (not .def_94))
(define-fun .def_16 () Int (! |.x{81}| :next |.y{11}|))
(define-fun .def_26 () Bool (<= .def_16 .def_14))
(define-fun .def_27 () Bool (not .def_26))
(define-fun .def_104 () Bool (and |.loc{5}| .def_27))
(define-fun .def_8 () Int (! |.x{85}| :next |.y{7}|))
(define-fun .def_74 () Bool (<= .def_8 0))
(define-fun .def_43 () Bool (<= |.x{87}| 0))
(define-fun .def_44 () Bool (not .def_43))
(define-fun .def_75 () Bool (or .def_44 .def_74))
(define-fun .def_105 () Bool (and .def_75 .def_104))
(define-fun .def_77 () Bool (not .def_74))
(define-fun .def_106 () Bool (and .def_77 .def_105))
(define-fun .def_35 () Int (* (- 1) |.x{87}|))
(define-fun .def_84 () Int (+ .def_14 .def_35))
(define-fun .def_85 () Int (+ .def_8 .def_84))
(define-fun .def_86 () Bool (= .def_85 0))
(define-fun .def_107 () Bool (and .def_86 .def_106))
(define-fun .def_108 () Bool (and .def_20 .def_107))
(define-fun .def_109 () Bool (and .def_72 .def_108))
(define-fun .def_111 () Bool (and .def_109 .def_110))
(define-fun .def_10 () Int (! |.y{6}| :next |.y{8}|))
(define-fun .def_99 () Bool (= |.y{7}| .def_10))
(define-fun .def_79 () Bool (not |.loc{5}|))
(define-fun .def_96 () Bool (and .def_26 .def_79))
(define-fun .def_97 () Bool (and .def_49 .def_96))
(define-fun .def_70 () Bool (= |.y{10}| 0))
(define-fun .def_98 () Bool (and .def_70 .def_97))
(define-fun .def_100 () Bool (and .def_98 .def_99))
(define-fun .def_82 () Bool (= .def_12 |.y{9}|))
(define-fun .def_101 () Bool (and .def_82 .def_100))
(define-fun .def_102 () Bool (and .def_18 .def_101))
(define-fun .def_58 () Bool (= .def_16 |.y{11}|))
(define-fun .def_103 () Bool (and .def_58 .def_102))
(define-fun .def_112 () Bool (or .def_103 .def_111))
(define-fun .def_88 () Bool (= .def_8 |.y{7}|))
(define-fun .def_76 () Bool (and .def_27 .def_75))
(define-fun .def_78 () Bool (and .def_76 .def_77))
(define-fun .def_80 () Bool (and .def_78 .def_79))
(define-fun .def_53 () Int (* (- 1) |.y{10}|))
(define-fun .def_54 () Int (+ .def_14 .def_53))
(define-fun .def_55 () Bool (= .def_54 (- 1)))
(define-fun .def_81 () Bool (and .def_55 .def_80))
(define-fun .def_83 () Bool (and .def_81 .def_82))
(define-fun .def_87 () Bool (and .def_83 .def_86))
(define-fun .def_89 () Bool (and .def_87 .def_88))
(define-fun .def_90 () Bool (and .def_20 .def_89))
(define-fun .def_91 () Bool (and .def_58 .def_90))
(define-fun .def_92 () Bool (and .def_72 .def_91))
(define-fun .def_95 () Bool (and .def_92 .def_94))
(define-fun .def_113 () Bool (or .def_95 .def_112))
(define-fun .def_114 () Bool (and |.loc{6}| .def_113))
(define-fun .def_67 () Bool (<= |.y{11}| 0))
(define-fun .def_68 () Bool (not .def_67))
(define-fun .def_63 () Bool (<= |.y{8}| 0))
(define-fun .def_64 () Bool (not .def_63))
(define-fun .def_40 () Bool (not |.loc{6}|))
(define-fun .def_61 () Bool (and |.loc{5}| .def_40))
(define-fun .def_60 () Bool (= |.y{7}| 0))
(define-fun .def_62 () Bool (and .def_60 .def_61))
(define-fun .def_65 () Bool (and .def_62 .def_64))
(define-fun .def_66 () Bool (and .def_49 .def_65))
(define-fun .def_69 () Bool (and .def_66 .def_68))
(define-fun .def_71 () Bool (and .def_69 .def_70))
(define-fun .def_73 () Bool (and .def_71 .def_72))
(define-fun .def_115 () Bool (or .def_73 .def_114))
(define-fun .def_51 () Bool (= .def_10 |.y{8}|))
(define-fun .def_42 () Bool (<= .def_10 0))
(define-fun .def_47 () Bool (not .def_42))
(define-fun .def_45 () Bool (or .def_42 .def_44))
(define-fun .def_36 () Int (+ .def_10 .def_35))
(define-fun .def_37 () Int (+ .def_8 .def_36))
(define-fun .def_38 () Bool (= .def_37 0))
(define-fun .def_31 () (Array Int Int) (store .def_12 |.x{87}| .def_8))
(define-fun .def_32 () Bool (= |.y{9}| .def_31))
(define-fun .def_23 () Int (* (- 1) |.y{7}|))
(define-fun .def_24 () Int (+ .def_8 .def_23))
(define-fun .def_25 () Bool (= .def_24 (- 1)))
(define-fun .def_28 () Bool (and .def_25 .def_27))
(define-fun .def_29 () Bool (and |.loc{5}| .def_28))
(define-fun .def_33 () Bool (and .def_29 .def_32))
(define-fun .def_39 () Bool (and .def_33 .def_38))
(define-fun .def_41 () Bool (and .def_39 .def_40))
(define-fun .def_46 () Bool (and .def_41 .def_45))
(define-fun .def_48 () Bool (and .def_46 .def_47))
(define-fun .def_50 () Bool (and .def_48 .def_49))
(define-fun .def_52 () Bool (and .def_50 .def_51))
(define-fun .def_56 () Bool (and .def_52 .def_55))
(define-fun .def_57 () Bool (and .def_18 .def_56))
(define-fun .def_59 () Bool (and .def_57 .def_58))
(define-fun .def_116 () Bool (! (or .def_59 .def_115) :trans true))
(define-fun .def_118 () Bool (and .def_18 .def_20))
(define-fun .def_119 () Bool (! (not .def_118) :invar-property 0))
(assert true)
